28 3
7 8 7
0 0 0 0 27 2 3 4 5 6 7 8 9 10 11 12 13 14 15 16 17 18 19 20 21 22 23 24 25 26 27 28
3 1 2 1 1 28
2 1 1 1 1 17
4 3 3 1 1 16
3 2 2 2 2 16 12
3 2 3 1 1 28
3 4 1 2 1 16
2 4 1 1 1 24
2 2 2 2 1 25
3 2 2 1 1 19
4 2 2 1 1 28
3 2 3 2 1 28
3 2 2 1 1 24
2 2 2 2 1 28
4 2 3 2 1 17
1 2 3 1 1 28
4 3 3 1 1 25
4 3 2 1 1 28
4 3 3 2 1 28
4 2 3 1 1 28
3 3 2 1 1 28
4 2 3 1 1 26
3 3 3 1 1 28
4 3 1 1 1 28
2 5 2 2 1 28
3 3 3 1 1 28
2 2 2 1 1 28
0 0 0 0 1 28
